seq =
[| 1, 4, 4, 4, 3, 4, 4, 4, 3, 4, 4, 4, 3, 4, 3, 2, 2, 1, 1, 1, 2, 2, 1, 1, 1, 2, 2, 3, 4, 3, 4, 4, 4, 3, 4, 4, 4, 3, 4, 4, 4, 1, 0, 0, 0, 0, 0, 0, 0, 0
 | 1, 4, 4, 4, 3, 4, 4, 4, 3, 4, 4, 4, 3, 4, 3, 3, 2, 2, 1, 1, 1, 2, 1, 1, 2, 1, 1, 1, 2, 2, 3, 3, 4, 3, 4, 4, 4, 3, 4, 4, 4, 3, 4, 4, 4, 1, 0, 0, 0, 0
 | 1, 4, 4, 3, 4, 4, 4, 3, 4, 4, 4, 3, 4, 3, 2, 2, 1, 1, 2, 1, 1, 2, 1, 1, 2, 2, 3, 4, 3, 4, 4, 4, 3, 4, 4, 4, 3, 4, 4, 1, 0, 0, 0, 0, 0, 0, 0, 0, 0, 0
 | 1, 4, 4, 4, 3, 4, 4, 4, 3, 4, 4, 4, 3, 4, 4, 3, 2, 2, 1, 1, 1, 2, 2, 1, 1, 1, 2, 2, 3, 4, 4, 3, 4, 4, 4, 3, 4, 4, 4, 3, 4, 4, 4, 1, 0, 0, 0, 0, 0, 0
 | 1, 4, 4, 4, 3, 4, 4, 4, 3, 4, 4, 4, 3, 4, 4, 3, 3, 2, 2, 1, 1, 1, 2, 1, 1, 2, 1, 1, 1, 2, 2, 3, 3, 4, 4, 3, 4, 4, 4, 3, 4, 4, 4, 3, 4, 4, 4, 1, 0, 0
 | 1, 4, 4, 4, 3, 4, 4, 4, 3, 4, 4, 4, 3, 4, 3, 2, 2, 1, 1, 2, 1, 1, 2, 1, 1, 2, 2, 3, 4, 3, 4, 4, 4, 3, 4, 4, 4, 3, 4, 4, 4, 1, 0, 0, 0, 0, 0, 0, 0, 0
 | 1, 4, 4, 4, 3, 4, 4, 4, 3, 4, 4, 4, 3, 4, 4, 3, 2, 2, 2, 1, 1, 1, 2, 2, 1, 1, 1, 2, 2, 2, 3, 4, 4, 3, 4, 4, 4, 3, 4, 4, 4, 3, 4, 4, 4, 1, 0, 0, 0, 0
 | 1, 4, 4, 4, 3, 4, 4, 4, 3, 4, 4, 4, 3, 4, 4, 3, 3, 2, 2, 2, 1, 1, 1, 2, 1, 1, 2, 1, 1, 1, 2, 2, 2, 3, 3, 4, 4, 3, 4, 4, 4, 3, 4, 4, 4, 3, 4, 4, 4, 1
 | 1, 4, 4, 4, 3, 4, 4, 4, 3, 4, 4, 4, 3, 4, 3, 2, 2, 2, 1, 1, 2, 1, 1, 2, 1, 1, 2, 2, 2, 3, 4, 3, 4, 4, 4, 3, 4, 4, 4, 3, 4, 4, 4, 1, 0, 0, 0, 0, 0, 0
 |];
indexes =
[| 1, 2, 3, 4, 5, 6, 7, 8,  9, 10, 11, 12, 13, 14, 16, 17, 18, 19, 20, 21, 22, 25, 26, 27, 28, 29, 30, 32, 33, 34, 35, 36, 37, 38, 39, 40, 41, 42, 43, 44, 45, 46, 50, 50, 50, 50, 50, 50, 50, 50
 | 1, 2, 3, 4, 5, 6, 7, 8,  9, 10, 11, 12, 13, 14, 15, 17, 18, 19, 20, 21, 22, 23, 26, 27, 28, 29, 30, 31, 33, 34, 35, 36, 37, 38, 39, 40, 41, 42, 43, 44, 45, 46, 47, 48, 50, 50, 50, 50, 50, 50
 | 1, 2, 3, 4, 5, 6, 7, 8,  9, 10, 11, 12, 13, 14, 15, 17, 18, 19, 20, 21, 22, 23, 24, 27, 28, 29, 30, 31, 32, 33, 35, 36, 37, 38, 39, 40, 41, 42, 43, 44, 45, 46, 47, 48, 49, 50, 50, 50, 50, 50
 | 1, 3, 4, 5, 6, 7, 8, 9, 10, 11, 12, 13, 14, 16, 17, 18, 19, 21, 22, 23, 24, 25, 26, 28, 29, 30, 32, 33, 34, 35, 36, 37, 38, 39, 40, 41, 42, 44, 45, 46, 50, 50, 50, 50, 50, 50, 50, 50, 50, 50
 | 1, 2, 3, 4, 5, 6, 7, 8,  9, 10, 11, 12, 13, 15, 17, 18, 19, 21, 22, 23, 24, 25, 26, 27, 29, 30, 31, 33, 35, 36, 37, 38, 39, 40, 41, 42, 43, 44, 45, 46, 47, 48, 50, 50, 50, 50, 50, 50, 50, 50
 | 1, 2, 3, 4, 5, 6, 7, 8,  9, 10, 11, 12, 13, 15, 17, 18, 19, 20, 21, 22, 24, 25, 26, 27, 28, 30, 31, 32, 33, 35, 37, 38, 39, 40, 41, 42, 43, 44, 45, 46, 47, 48, 49, 50, 50, 50, 50, 50, 50, 50
 | 1, 2, 3, 4, 5, 6, 7, 8,  9, 10, 11, 12, 13, 14, 16, 17, 18, 19, 20, 21, 22, 23, 24, 25, 26, 27, 28, 29, 30, 32, 33, 34, 35, 36, 37, 38, 39, 40, 41, 42, 43, 44, 50, 50, 50, 50, 50, 50, 50, 50
 | 1, 2, 3, 4, 5, 6, 7, 8,  9, 10, 11, 12, 13, 14, 15, 16, 18, 19, 20, 21, 22, 23, 24, 25, 26, 27, 29, 30, 31, 32, 33, 34, 35, 36, 37, 38, 39, 40, 41, 42, 43, 44, 45, 46, 50, 50, 50, 50, 50, 50
 | 1, 2, 3, 4, 5, 6, 7, 8,  9, 10, 11, 12, 13, 15, 16, 17, 18, 19, 20, 21, 22, 23, 24, 25, 26, 27, 28, 29, 30, 31, 32, 33, 35, 36, 37, 38, 39, 40, 41, 42, 43, 44, 45, 46, 47, 48, 50, 50, 50, 50
 | 1, 2, 3, 4, 5, 6, 7, 8,  9, 10, 11, 12, 13, 14, 15, 16, 17, 19, 20, 21, 22, 23, 24, 25, 26, 27, 28, 29, 30, 32, 33, 34, 35, 36, 37, 38, 39, 40, 41, 42, 43, 44, 45, 46, 47, 48, 49, 50, 50, 50
 | 1, 3, 4, 5, 6, 7, 8, 9, 10, 11, 12, 13, 14, 15, 16, 17, 18, 19, 20, 21, 22, 23, 24, 25, 26, 27, 28, 29, 30, 31, 32, 33, 34, 35, 36, 37, 38, 40, 41, 42, 50, 50, 50, 50, 50, 50, 50, 50, 50, 50
 | 1, 2, 3, 4, 5, 6, 7, 8,  9, 10, 11, 12, 13, 14, 15, 16, 17, 19, 20, 21, 22, 23, 24, 25, 26, 28, 29, 30, 31, 32, 33, 34, 35, 36, 37, 38, 39, 40, 41, 42, 43, 44, 50, 50, 50, 50, 50, 50, 50, 50
 |];